(set-logic HORN)
(set-info :source |
  Benchmark: ./benchmarks/Table1/mult-comm.ml
  Generated by Refinement Caml
|)
(set-info :status unknown)
(declare-fun |$P0| (Int Int Int) Bool)
(assert (forall ((x0 Int)(x2 Int)(x1 Int)) (=> (and (= x1 0) (= x2 0)) (|$P0| x0 x2 x1))))
(assert (forall ((x2 Int)(x0 Int)(x1 Int)(x3 Int)(x4 Int)) (=> (and (|$P0| x2 x3 x4) (and (or (< x0 0) (> x0 0)) (and (= x0 (+ 1 x3)) (= x1 (+ x2 x4))))) (|$P0| x2 x0 x1))))
(assert (not (exists ((x0 Int)(x3 Int)(x2 Int)(x1 Int)) (and (|$P0| x2 x1 x0) (and (|$P0| x1 x2 x3) (or (< x0 x3) (> x0 x3)))))))
(check-sat)
